
Log started (V12.10.0.0) Thu Apr  1 14:09:01 2021


Problem 'asset.lp' read.
Read time = 0.01 sec. (0.82 ticks)
New value for default parallel thread count: 1
New value for time limit in seconds: 150
Version identifier: 12.10.0.0 | 2019-11-26 | 843d4de
CPXPARAM_Threads                                 1
CPXPARAM_TimeLimit                               150
Found incumbent of value 0.000000 after 0.00 sec. (0.23 ticks)
Tried aggregator 3 times.
MIP Presolve eliminated 1715 rows and 787 columns.
MIP Presolve modified 6943 coefficients.
Aggregator did 2740 substitutions.
Reduced MIP has 2833 rows, 3657 columns, and 16370 nonzeros.
Reduced MIP has 3291 binaries, 292 generals, 0 SOSs, and 0 indicators.
Presolve time = 0.03 sec. (36.15 ticks)
Probing fixed 73 vars, tightened 7 bounds.
Probing time = 0.04 sec. (28.30 ticks)
Cover probing fixed 0 vars, tightened 23 bounds.
Tried aggregator 1 time.
Detecting symmetries...
MIP Presolve eliminated 90 rows and 88 columns.
MIP Presolve modified 528 coefficients.
Reduced MIP has 2743 rows, 3569 columns, and 15868 nonzeros.
Reduced MIP has 3210 binaries, 285 generals, 0 SOSs, and 0 indicators.
Presolve time = 0.01 sec. (9.66 ticks)
Probing time = 0.00 sec. (3.81 ticks)
Clique table members: 10064.
MIP emphasis: balance optimality and feasibility.
MIP search method: dynamic search.
Parallel mode: none, using 1 thread.
Root relaxation solution time = 0.12 sec. (177.41 ticks)

        Nodes                                         Cuts/
   Node  Left     Objective  IInf  Best Integer    Best Bound    ItCnt     Gap

*     0+    0                            0.0000      651.0000              --- 
      0     0      614.2678   462        0.0000      614.2678     1707     --- 
      0     0      603.1346   462        0.0000     Cuts: 785     4222     --- 
      0     0      596.0648   462        0.0000     Cuts: 785     7065     --- 
      0     0      594.7124   462        0.0000     Cuts: 785     8523     --- 
*     0+    0                           18.0000      594.7124              --- 
      0     0        cutoff             18.0000      594.7124     8523     --- 
      0     0      592.8933   462       18.0000     Cuts: 735    10383     --- 
      0     0      592.3788   462       18.0000     Cuts: 601    11232     --- 
Detecting symmetries...
      0     0      592.0667   462       18.0000     Cuts: 424    11994     --- 
*     0+    0                           48.0000      592.0667              --- 
*     0+    0                           72.0000      592.0667           722.31%
      0     0        cutoff             72.0000      592.0667    11994  722.31%
      0     0      591.8840   462       72.0000     Cuts: 434    12415  722.06%
      0     0      591.6037   462       72.0000     Cuts: 318    13530  721.67%
      0     0      591.4182   462       72.0000     Cuts: 627    14571  721.41%
      0     0      591.2143   462       72.0000     Cuts: 394    15330  721.13%
      0     0      590.8551   462       72.0000     Cuts: 401    16490  720.63%
      0     0      590.7882   462       72.0000     Cuts: 366    17160  720.54%
*     0+    0                           87.0000      590.7882           579.07%
      0     0      590.4758   462       87.0000     Cuts: 109    17601  578.71%
      0     0      590.3608   462       87.0000     Cuts: 352    18043  578.58%
      0     0      590.2035   462       87.0000     Cuts: 450    18646  578.39%
*     0+    0                           99.0000      590.2035           496.17%
*     0+    0                          117.0000      590.2035           404.45%
*     0+    0                          123.0000      590.2035           379.84%
      0     0        cutoff            123.0000      590.2035    18646  379.84%
      0     0      590.1186   462      123.0000     Cuts: 431    19183  379.77%
*     0+    0                          129.0000      590.1186           357.46%
Detecting symmetries...
      0     2      590.1186   481      129.0000      590.1186    19183  357.46%
Elapsed time = 3.82 sec. (5253.45 ticks, tree = 0.01 MB, solutions = 8)
      8    10      583.3963   455      129.0000      590.1186    21615  357.46%
     10    12      590.1186   452      129.0000      590.1186    21682  357.46%
     20    22      589.5723   456      129.0000      590.1186    23555  357.46%
     27    29      589.3950   443      129.0000      590.1186    25216  357.46%
     30    32      589.0256   460      129.0000      590.1186    27259  357.46%
     33    35      586.1102   445      129.0000      590.1186    29163  357.46%
     41    43      575.3997   405      129.0000      590.1186    30061  357.46%
     47    49      575.5186   430      129.0000      590.1186    32396  357.46%
     50    52      584.5419   448      129.0000      590.1186    33867  357.46%
     73    71      541.3704   383      129.0000      590.1186    41015  357.46%
Elapsed time = 6.92 sec. (9985.81 ticks, tree = 1.16 MB, solutions = 8)
     82    80      478.3568   303      129.0000      590.1186    47938  357.46%
    100    98      461.7389   302      129.0000      590.1186    55983  357.46%
    133   123      361.8706   180      129.0000      590.1186    63269  357.46%
    240   201      567.7194   398      129.0000      590.1186    69452  357.46%
    268   225      545.4666   392      129.0000      590.1186    75472  357.46%
    295   250      470.9921   313      129.0000      590.1186    82678  357.46%
*   360+  311                          237.0000      590.1186           149.00%
    413   354    infeasible            237.0000      590.1186    87981  149.00%
    420   355      589.9625   469      237.0000      590.1186    88659  149.00%
    440   375      577.3990   444      237.0000      590.1186    93015  149.00%
    470   405      567.7026   425      237.0000      590.1186    95743  149.00%
Elapsed time = 13.87 sec. (20234.93 ticks, tree = 9.18 MB, solutions = 9)
*   522+  448                          252.0000      590.1186           134.17%
    522   450      586.8231   459      252.0000      590.1186   102142  134.17%
    523   451      569.3716   440      252.0000      590.1186   103528  134.17%
    578   506      560.4722   431      252.0000      589.9625   109811  134.11%

Performing restart 1

Repeating presolve.
Tried aggregator 2 times.
MIP Presolve modified 4723 coefficients.
Aggregator did 10 substitutions.
Reduced MIP has 2733 rows, 3559 columns, and 13031 nonzeros.
Reduced MIP has 3200 binaries, 285 generals, 0 SOSs, and 0 indicators.
Presolve time = 0.01 sec. (14.48 ticks)
Tried aggregator 1 time.
Reduced MIP has 2733 rows, 3559 columns, and 13031 nonzeros.
Reduced MIP has 3200 binaries, 285 generals, 0 SOSs, and 0 indicators.
Presolve time = 0.01 sec. (8.96 ticks)
Represolve time = 0.10 sec. (75.51 ticks)
    632     0      532.0759   533      252.0000     Cuts: 563   125671  111.14%
    632     0      514.9959   533      252.0000     Cuts: 484   128525  104.36%
    632     0      506.1797   533      252.0000     Cuts: 414   130886  100.86%
*   632+    0                          282.0000      506.1797            79.50%
    632     0      501.7848   533      282.0000     Cuts: 391   132724   77.94%
    632     0      498.0311   533      282.0000     Cuts: 364   134906   76.61%
    632     0      495.7522   533      282.0000     Cuts: 351   136379   75.80%
    632     0      494.2874   533      282.0000     Cuts: 301   137541   75.28%
    632     0      491.9354   533      282.0000     Cuts: 273   138904   74.45%
    632     0      490.6328   533      282.0000     Cuts: 350   140649   73.98%
    632     0      489.6082   533      282.0000     Cuts: 281   141980   73.62%
    632     0      488.7396   533      282.0000     Cuts: 211   143332   73.31%
    632     0      488.1000   533      282.0000     Cuts: 225   144617   73.09%
    632     0      487.8131   533      282.0000     Cuts: 176   145192   72.98%
    632     0      487.5547   533      282.0000     Cuts: 188   146182   72.89%
    632     0      487.3900   533      282.0000     Cuts: 177   146853   72.83%
    632     0      487.2632   533      282.0000     Cuts: 142   147281   72.79%
    632     0      487.0886   533      282.0000     Cuts: 178   147923   72.73%
    632     0      486.7933   533      282.0000     Cuts: 164   148565   72.62%
*   632+    0                          285.0000      486.7933            70.80%
    632     0      486.6567   533      285.0000     Cuts: 180   149424   70.76%
    632     0      486.4644   533      285.0000     Cuts: 152   149985   70.69%
    632     0      486.3506   533      285.0000     Cuts: 126   150698   70.65%
    632     0      485.8396   533      285.0000     Cuts: 154   152074   70.47%
    632     0      485.6952   533      285.0000     Cuts: 196   152960   70.42%
    632     0      485.5850   533      285.0000     Cuts: 179   153670   70.38%
    632     0      485.5197   533      285.0000     Cuts: 197   154356   70.36%
    632     0      485.4089   533      285.0000      Cuts: 93   154945   70.32%
    632     0      485.3176   533      285.0000     Cuts: 193   155313   70.29%
    632     0      485.2937   533      285.0000     Cuts: 158   155604   70.28%
    632     0      485.1641   533      285.0000     Cuts: 129   156207   70.23%
    632     0      484.9960   533      285.0000     Cuts: 142   156861   70.17%
    632     0      484.9289   533      285.0000     Cuts: 178   157351   70.15%
    632     0      484.8931   533      285.0000      Cuts: 86   157684   70.14%
    632     2      484.8931   569      285.0000      484.4439   157684   69.98%
    634     4      483.7648   541      285.0000      483.9664   159881   69.81%
    636     6      483.6429   509      285.0000      483.7853   161282   69.75%
    638     8      483.0537   493      285.0000      483.7853   165850   69.75%
    641    11      482.9342   481      285.0000      483.7853   167643   69.75%
    642    12      471.9538   460      285.0000      483.7853   169804   69.75%
    646    16      482.4697   480      285.0000      483.7853   171720   69.75%
Elapsed time = 56.67 sec. (76794.65 ticks, tree = 0.26 MB, solutions = 12)
    648    18      482.3425   481      285.0000      483.7853   174515   69.75%
    651    21      480.6003   470      285.0000      483.7853   177526   69.75%
    652    22      475.0977   474      285.0000      483.7853   179314   69.75%
    655    25      480.1235   477      285.0000      483.7853   182970   69.75%
    658    28      472.3633   456      285.0000      483.7853   186698   69.75%
    663    33      469.0121   450      285.0000      483.7853   190226   69.75%
    666    36      479.0206   472      285.0000      483.7853   192544   69.75%
    669    39      463.5575   439      285.0000      483.7853   197003   69.75%
    672    42      477.7900   430      285.0000      483.7853   200428   69.75%
    676    46      456.0848   420      285.0000      483.7853   206932   69.75%
Elapsed time = 65.34 sec. (89560.45 ticks, tree = 0.54 MB, solutions = 12)
    679    49      470.8611   445      285.0000      483.7853   212846   69.75%
    684    54      470.2856   464      285.0000      483.7853   218048   69.75%
    686    56      468.8783   455      285.0000      483.7853   224048   69.75%
    690    60      464.3675   426      285.0000      483.7853   227847   69.75%
    692    62      464.2817   426      285.0000      483.7853   230253   69.75%
    697    67      463.6835   416      285.0000      483.7853   233948   69.75%
    700    70      455.3463   394      285.0000      483.7853   238749   69.75%
    702    72      461.5980   382      285.0000      483.7853   241704   69.75%
    706    76      462.8808   400      285.0000      483.7853   246375   69.75%
    710    80      460.3141   400      285.0000      483.7853   250985   69.75%
Elapsed time = 72.79 sec. (100681.48 ticks, tree = 0.76 MB, solutions = 12)
    712    82      455.3901   394      285.0000      483.7853   253875   69.75%
    719    89      458.0749   381      285.0000      483.7853   258460   69.75%
    721    91      456.8613   400      285.0000      483.7853   264087   69.75%
    726    96      457.7156   405      285.0000      483.7853   268654   69.75%
    731   101      442.4846   401      285.0000      483.7853   273421   69.75%
    736   106      439.3253   354      285.0000      483.7853   278756   69.75%
    742   112      451.4663   415      285.0000      483.7853   283975   69.75%
    750   120      448.8412   365      285.0000      483.7853   288696   69.75%
    756   126      449.5516   342      285.0000      483.7853   291274   69.75%
    763   133      449.1028   354      285.0000      483.7853   296457   69.75%
Elapsed time = 79.97 sec. (112048.32 ticks, tree = 0.86 MB, solutions = 12)
    771   141      447.8889   349      285.0000      483.7853   300712   69.75%
    780   148      446.1390   365      285.0000      483.7853   305599   69.75%
    791   159      443.1628   340      285.0000      483.7853   311273   69.75%
    793   161      441.3873   335      285.0000      483.7853   313562   69.75%
    807   175      444.6386   314      285.0000      483.7853   318266   69.75%
    819   187      442.6883   331      285.0000      483.7853   324546   69.75%
    832   200      434.1403   324      285.0000      483.7853   331003   69.75%
    844   211      430.2352   279      285.0000      483.7853   338274   69.75%
    856   223      417.7891   261      285.0000      483.7853   343963   69.75%
    882   248      398.1904   248      285.0000      483.7853   350662   69.75%
Elapsed time = 87.00 sec. (122793.00 ticks, tree = 1.09 MB, solutions = 12)
    907   271      386.5080   209      285.0000      483.7853   357987   69.75%
    966   318      359.8783   162      285.0000      483.7853   362251   69.75%
    983   323      481.6225   530      285.0000      483.2180   364491   69.55%
    988   328      480.4327   486      285.0000      483.2180   366730   69.55%
    992   332      479.7214   502      285.0000      483.2180   368472   69.55%
    995   335      475.6353   482      285.0000      483.2180   372883   69.55%
    998   338      458.4331   462      285.0000      483.2180   378758   69.55%
   1004   344      466.3506   412      285.0000      483.2180   386217   69.55%
   1008   348      469.2518   434      285.0000      483.2180   391496   69.55%
   1014   354      458.6068   412      285.0000      483.2180   398020   69.55%
Elapsed time = 94.66 sec. (134511.35 ticks, tree = 1.30 MB, solutions = 12)
   1019   359      459.5805   386      285.0000      483.2180   404065   69.55%
   1024   364      442.3837   387      285.0000      483.2180   409400   69.55%
   1032   372      453.4574   395      285.0000      483.2180   413869   69.55%
   1039   379      444.2241   386      285.0000      483.2180   419592   69.55%
   1048   388      443.0193   395      285.0000      483.2180   424988   69.55%
   1055   395      430.7786   358      285.0000      483.2180   430874   69.55%
   1068   408      428.0162   324      285.0000      483.2180   436549   69.55%
   1083   423      413.6230   302      285.0000      483.2180   440386   69.55%
   1097   437      422.4041   322      285.0000      483.2180   445783   69.55%
   1108   448      412.4151   324      285.0000      483.2180   452329   69.55%
Elapsed time = 102.01 sec. (146066.34 ticks, tree = 1.48 MB, solutions = 12)
   1117   457      410.6337   302      285.0000      483.2180   455331   69.55%
   1138   478      405.5820   275      285.0000      483.2180   461157   69.55%
   1161   496      384.6606   261      285.0000      483.2180   466311   69.55%
   1199   526      332.6483   149      285.0000      483.2180   471896   69.55%
   1289   583      481.0328   550      285.0000      483.2137   481164   69.55%
   1290   584      479.4427   548      285.0000      483.0453   485927   69.49%
   1294   588      461.5361   469      285.0000      482.9700   489525   69.46%
   1296   590      452.6194   455      285.0000      482.9700   494424   69.46%
   1303   597      443.9180   409      285.0000      482.9700   498369   69.46%
   1355   649      365.7419   247      285.0000      482.9700   519174   69.46%
Elapsed time = 113.31 sec. (162972.91 ticks, tree = 1.89 MB, solutions = 12)
   1386   676      452.4355   438      285.0000      482.9302   540503   69.45%
   1404   694      431.3622   413      285.0000      482.9302   563624   69.45%
   1433   723      396.8552   289      285.0000      482.9302   586598   69.45%
   1493   781      386.0602   245      285.0000      482.9302   612528   69.45%
   1576   847      464.5351   439      285.0000      482.7618   635809   69.39%
   1595   866      413.2155   373      285.0000      482.7618   650868   69.39%
*  1632+  900                          288.0000      482.7618            67.63%
*  1632+  900                          294.0000      482.7618            64.20%
*  1632+  896                          300.0000      482.7618            60.92%
   1664   924      480.4746   514      300.0000      482.6023   667628   60.87%
   1682   941      440.0506   443      300.0000      482.6023   683733   60.87%
   1717   976      414.3860   332      300.0000      482.6023   701064   60.87%
Starting limited solution polishing.
   1776  1027      449.5360   449      300.0000      482.4530   721410   60.82%
Elapsed time = 140.60 sec. (202664.81 ticks, tree = 2.60 MB, solutions = 15)
   1801  1052      415.7066   398      300.0000      482.4530   742518   60.82%
   1882  1122      473.1312   475      300.0000      482.1690   764420   60.72%
   1908  1148      447.5570   422      300.0000      482.1690   785038   60.72%

GUB cover cuts applied:  120
Clique cuts applied:  105
Cover cuts applied:  32
Implied bound cuts applied:  134
Flow cuts applied:  29
Mixed integer rounding cuts applied:  200
Zero-half cuts applied:  127
Lift and project cuts applied:  20
Gomory fractional cuts applied:  12

Root node processing (before b&c):
  Real time             =    3.80 sec. (5233.22 ticks)
Sequential b&c:
  Real time             =  146.21 sec. (211110.72 ticks)
                          ------------
Total (root+branch&cut) =  150.00 sec. (216343.94 ticks)

Solution pool: 16 solutions saved.

MIP - Time limit exceeded, integer feasible:  Objective =  3.0000000000e+02
Current MIP best bound =  4.8216902605e+02 (gap = 182.169, 60.72%)
Solution time =  150.00 sec.  Iterations = 789234  Nodes = 1913 (1152)
Deterministic time = 216343.96 ticks  (1442.28 ticks/sec)


Incumbent solution
Variable Name           Solution Value
F                           300.000000
y186                          1.000000
y193                          1.000000
y239                          1.000000
y80                           1.000000
y89                           1.000000
y52                           1.000000
y155                          1.000000
y235                          1.000000
y115                          1.000000
y231                          1.000000
y45                           1.000000
y151                          1.000000
y46                           1.000000
y216                          1.000000
y38                           1.000000
y152                          1.000000
y79                           1.000000
y109                          1.000000
y206                          1.000000
y233                          1.000000
y11                           1.000000
y94                           1.000000
y222                          1.000000
y194                          1.000000
y84                           1.000000
y104                          1.000000
y110                          1.000000
y227                          1.000000
y40                           1.000000
y93                           1.000000
x106x186x1                    1.000000
x118x80x1                     1.000000
x241x109x1                    1.000000
x69x239x1                     1.000000
x58x52x1                      1.000000
x74x94x1                      1.000000
x2x206x1                      1.000000
x217x151x1                    1.000000
x17x186x1                     1.000000
x241x155x2                    1.000000
x58x235x2                     1.000000
x74x115x2                     1.000000
x43x52x2                      1.000000
x43x45x2                      1.000000
x124x239x2                    1.000000
x218x115x2                    1.000000
x218x216x2                    1.000000
x17x89x2                      1.000000
x106x155x3                    1.000000
x118x80x3                     1.000000
x132x193x3                    2.000000
x2x45x3                       1.000000
x124x89x3                     1.000000
x217x216x3                    1.000000
x23x235x3                     1.000000
x23x109x3                     1.000000
x186x222x1                    1.000000
x186x93x1                     1.000000
x193x233x3                    2.000000
x239x79x1                     1.000000
x239x231x2                    1.000000
x80x231x1                     1.000000
x80x206x3                     1.000000
x89x46x2                      1.000000
x89x151x3                     1.000000
x52x84x1                      1.000000
x52x152x2                     1.000000
x155x38x2                     1.000000
x155x46x3                     1.000000
x235x152x2                    1.000000
x235x38x3                     1.000000
x115x79x2                     1.000000
x115x11x2                     1.000000
x231x40x1                     1.000000
x231x104x2                    1.000000
x45x222x2                     1.000000
x45x40x3                      1.000000
x151x227x1                    1.000000
x151x227x3                    1.000000
x46x104x2                     1.000000
x46x0x3                       1.000000
x216x94x2                     1.000000
x216x110x3                    1.000000
x38x0x2                       1.000000
x38x0x3                       1.000000
x152x0x2                      2.000000
x79x0x1                       1.000000
x79x0x2                       1.000000
x109x110x1                    1.000000
x109x194x3                    1.000000
x206x84x1                     1.000000
x206x93x3                     1.000000
x233x11x3                     1.000000
x233x194x3                    1.000000
x11x0x2                       1.000000
x11x0x3                       1.000000
x94x0x1                       1.000000
x94x0x2                       1.000000
x222x0x1                      1.000000
x222x0x2                      1.000000
x194x0x3                      2.000000
x84x0x1                       2.000000
x104x0x2                      2.000000
x110x0x1                      1.000000
x110x0x3                      1.000000
x227x0x1                      1.000000
x227x0x3                      1.000000
x40x0x1                       1.000000
x40x0x3                       1.000000
x93x0x1                       1.000000
x93x0x3                       1.000000
s106                          5.127653
s81                           6.800696
s186                          6.871461
z106z186z1                    1.000000
s80                           6.793794
s219                          6.933954
s89                           6.875280
s105                          7.241261
s101                          6.290000
s52                           7.281192
s155                          6.949738
z106z155z3                    1.000000
s235                          7.289274
s192                          6.370000
s29                           7.347183
s22                           7.396702
s244                          7.070000
s138                          7.140000
z106z138z3                    1.000000
s182                          7.220000
s127                          7.310000
z106z127z3                    1.000000
s145                          7.360000
z106z145z1                    1.000000
s231                          8.053195
s268                          7.420000
s161                          7.430000
s100                          8.440000
s176                          7.460000
s98                           7.480000
s250                          8.510000
z106z250z3                    1.000000
s26                           7.520000
s249                          7.520000
z106z249z3                    1.000000
s253                          7.520000
s97                           7.570000
s142                          7.570000
z106z142z1                    1.000000
s171                          7.570000
z106z171z1                    1.000000
s45                           7.962265
s199                          7.600000
s258                          7.600000
z106z258z1                    1.000000
s269                          7.600000
z106z269z1                    1.000000
s151                          8.148938
s271                          7.620000
z106z271z1                    1.000000
s68                           8.660000
z106z68z1                     1.000000
s83                           7.700000
z106z83z1                     1.000000
s46                           8.200692
s216                          7.819663
s38                           8.740000
s257                          8.740000
s159                          7.830000
s64                           8.950000
z106z64z1                     1.000000
s79                           8.636090
s230                          8.950000
z106z230z3                    1.000000
s109                          7.980000
s206                          8.181716
s233                          8.040000
z106z233z3                    1.000000
s59                           9.070000
s133                          9.070000
z106z133z1                    1.000000
s240                          9.070000
s130                          9.080000
z106z130z1                    1.000000
s238                          9.110000
s11                           9.093748
s94                           9.150000
s222                          9.150000
s191                          8.160000
s194                          9.180000
z106z194z3                    1.000000
s84                           9.210000
z106z84z1                     1.000000
s110                          9.280000
s44                           8.310000
z106z44z3                     1.000000
s76                           9.310000
z106z76z3                     1.000000
s273                          9.320000
z106z273z1                    1.000000
s196                          8.348897
z106z196z3                    1.000000
s227                          9.330000
s236                          9.350000
s111                          8.380572
s40                           9.390000
s173                          9.430000
z106z173z3                    1.000000
s93                           9.450000
s86                           9.460000
z106z86z1                     1.000000
s118                          5.163050
z118z80z1                     1.000000
z118z80z3                     1.000000
z118z138z3                    1.000000
z118z127z3                    1.000000
z118z145z1                    1.000000
z118z250z3                    1.000000
z118z249z3                    1.000000
z118z142z1                    1.000000
z118z171z1                    1.000000
z118z258z1                    1.000000
z118z269z1                    1.000000
z118z271z1                    1.000000
z118z68z1                     1.000000
z118z83z1                     1.000000
z118z64z1                     1.000000
z118z230z3                    1.000000
z118z233z3                    1.000000
z118z133z1                    1.000000
z118z130z1                    1.000000
z118z194z3                    1.000000
z118z84z1                     1.000000
z118z44z3                     1.000000
z118z76z3                     1.000000
z118z273z1                    1.000000
z118z196z3                    1.000000
z118z173z3                    1.000000
z118z86z1                     1.000000
s132                          5.030600
s193                          6.535928
z132z193z3                    1.000000
z132z138z3                    1.000000
z132z127z3                    1.000000
z132z250z3                    1.000000
z132z249z3                    1.000000
z132z230z3                    1.000000
z132z233z3                    1.000000
z132z194z3                    1.000000
z132z44z3                     1.000000
z132z76z3                     1.000000
z132z196z3                    1.000000
z132z173z3                    1.000000
s241                          5.386667
s77                           6.320000
z241z155z2                    1.000000
s115                          7.399635
z241z145z1                    1.000000
s180                          7.410000
z241z180z2                    1.000000
s146                          7.420000
z241z146z2                    1.000000
s224                          8.500000
z241z224z2                    1.000000
z241z142z1                    1.000000
z241z171z1                    1.000000
z241z258z1                    1.000000
z241z269z1                    1.000000
z241z271z1                    1.000000
s223                          8.630000
z241z223z2                    1.000000
z241z68z1                     1.000000
z241z83z1                     1.000000
s152                          8.740000
z241z152z2                    1.000000
z241z64z1                     1.000000
z241z109z1                    1.000000
z241z133z1                    1.000000
z241z130z1                    1.000000
z241z84z1                     1.000000
s104                          9.280000
z241z104z2                    1.000000
s103                          9.310000
z241z103z2                    1.000000
z241z273z1                    1.000000
z241z86z1                     1.000000
s69                           4.430000
s3                            6.000000
s60                           6.000000
z69z186z1                     1.000000
s228                          6.000000
s239                          6.556988
z69z239z1                     1.000000
s263                          6.000000
z69z192z1                     1.000000
z69z22z1                      1.000000
z69z145z1                     1.000000
z69z142z1                     1.000000
z69z171z1                     1.000000
z69z258z1                     1.000000
z69z269z1                     1.000000
z69z271z1                     1.000000
z69z68z1                      1.000000
z69z83z1                      1.000000
z69z64z1                      1.000000
z69z133z1                     1.000000
z69z130z1                     1.000000
z69z84z1                      1.000000
z69z273z1                     1.000000
z69z86z1                      1.000000
s58                           5.639539
z58z52z1                      1.000000
z58z235z2                     1.000000
z58z224z2                     1.000000
z58z171z1                     1.000000
z58z258z1                     1.000000
z58z83z1                      1.000000
z58z152z2                     1.000000
z58z64z1                      1.000000
z58z133z1                     1.000000
z58z130z1                     1.000000
z58z84z1                      1.000000
z58z104z2                     1.000000
z58z103z2                     1.000000
z58z273z1                     1.000000
z58z86z1                      1.000000
s74                           5.695150
z74z115z2                     1.000000
z74z224z2                     1.000000
z74z171z1                     1.000000
z74z258z1                     1.000000
z74z64z1                      1.000000
z74z133z1                     1.000000
z74z130z1                     1.000000
z74z94z1                      1.000000
z74z84z1                      1.000000
z74z104z2                     1.000000
z74z103z2                     1.000000
z74z273z1                     1.000000
z74z86z1                      1.000000
s2                            5.698493
z2z127z3                      1.000000
z2z171z1                      1.000000
z2z45z3                       1.000000
z2z258z1                      1.000000
z2z64z1                       1.000000
z2z230z3                      1.000000
z2z206z1                      1.000000
z2z233z3                      1.000000
z2z133z1                      1.000000
z2z130z1                      1.000000
z2z194z3                      1.000000
z2z84z1                       1.000000
z2z44z3                       1.000000
z2z76z3                       1.000000
z2z273z1                      1.000000
z2z196z3                      1.000000
z2z173z3                      1.000000
z2z86z1                       1.000000
s43                           5.657737
z43z52z2                      1.000000
z43z115z2                     1.000000
z43z224z2                     1.000000
z43z45z2                      1.000000
z43z152z2                     1.000000
z43z104z2                     1.000000
z43z103z2                     1.000000
s124                          5.124303
s14                           6.000000
s170                          6.000000
s204                          6.000000
s226                          6.000000
z124z239z2                    1.000000
z124z89z3                     1.000000
z124z138z3                    1.000000
z124z127z3                    1.000000
z124z180z2                    1.000000
z124z146z2                    1.000000
z124z224z2                    1.000000
z124z250z3                    1.000000
z124z249z3                    1.000000
z124z223z2                    1.000000
z124z152z2                    1.000000
z124z230z3                    1.000000
z124z233z3                    1.000000
z124z194z3                    1.000000
z124z104z2                    1.000000
z124z44z3                     1.000000
z124z76z3                     1.000000
z124z103z2                    1.000000
z124z196z3                    1.000000
z124z173z3                    1.000000
s217                          5.981980
z217z258z1                    1.000000
z217z151z1                    1.000000
z217z216z3                    1.000000
z217z64z1                     1.000000
z217z230z3                    1.000000
z217z233z3                    1.000000
z217z133z1                    1.000000
z217z130z1                    1.000000
z217z194z3                    1.000000
z217z84z1                     1.000000
z217z44z3                     1.000000
z217z76z3                     1.000000
z217z273z1                    1.000000
z217z196z3                    1.000000
z217z173z3                    1.000000
z217z86z1                     1.000000
s23                           5.839164
z23z235z3                     1.000000
z23z230z3                     1.000000
z23z109z3                     1.000000
z23z233z3                     1.000000
z23z194z3                     1.000000
z23z44z3                      1.000000
z23z76z3                      1.000000
z23z196z3                     1.000000
z23z173z3                     1.000000
s218                          5.996293
z218z115z2                    1.000000
z218z216z2                    1.000000
z218z104z2                    1.000000
z218z103z2                    1.000000
s17                           5.492611
z17z186z1                     1.000000
z17z89z2                      1.000000
z17z145z1                     1.000000
z17z180z2                     1.000000
z17z146z2                     1.000000
z17z224z2                     1.000000
z17z142z1                     1.000000
z17z171z1                     1.000000
z17z258z1                     1.000000
z17z269z1                     1.000000
z17z271z1                     1.000000
z17z223z2                     1.000000
z17z68z1                      1.000000
z17z83z1                      1.000000
z17z152z2                     1.000000
z17z64z1                      1.000000
z17z133z1                     1.000000
z17z130z1                     1.000000
z17z84z1                      1.000000
z17z104z2                     1.000000
z17z103z2                     1.000000
z17z273z1                     1.000000
z17z86z1                      1.000000
z3z273z1                      1.000000
z3z86z1                       1.000000
z14z104z2                     1.000000
z14z103z2                     1.000000
z60z104z2                     1.000000
z60z103z2                     1.000000
z60z273z1                     1.000000
z60z86z1                      1.000000
z81z104z2                     1.000000
z81z76z3                      1.000000
z81z196z3                     1.000000
z81z173z3                     1.000000
z170z104z2                    1.000000
z186z222z1                    1.000000
z186z93z1                     1.000000
z186z86z1                     1.000000
z193z233z3                    1.000000
z193z194z3                    1.000000
z193z44z3                     1.000000
z193z76z3                     1.000000
z193z196z3                    1.000000
z193z173z3                    1.000000
z204z104z2                    1.000000
z204z103z2                    1.000000
z226z104z2                    1.000000
z226z103z2                    1.000000
z228z273z1                    1.000000
z228z86z1                     1.000000
z239z231z2                    1.000000
z239z79z1                     1.000000
z239z104z2                    1.000000
z239z103z2                    1.000000
z239z273z1                    1.000000
z239z86z1                     1.000000
z263z84z1                     1.000000
z263z104z2                    1.000000
z263z103z2                    1.000000
z263z273z1                    1.000000
z263z86z1                     1.000000
z80z231z1                     1.000000
z80z206z3                     1.000000
z80z173z3                     1.000000
z80z86z1                      1.000000
z219z104z2                    1.000000
z219z86z1                     1.000000
z89z151z3                     1.000000
z89z46z2                      1.000000
z89z104z2                     1.000000
z89z173z3                     1.000000
z105z173z3                    1.000000
z101z173z3                    1.000000
z101z86z1                     1.000000
z52z152z2                     1.000000
z52z84z1                      1.000000
z52z104z2                     1.000000
z52z86z1                      1.000000
z77z104z2                     1.000000
z155z46z3                     1.000000
z155z38z2                     1.000000
z155z104z2                    1.000000
z155z173z3                    1.000000
z235z38z3                     1.000000
z235z152z2                    1.000000
z235z104z2                    1.000000
z235z173z3                    1.000000
z192z86z1                     1.000000
z29z173z3                     1.000000
z22z86z1                      1.000000
z115z79z2                     1.000000
z115z11z2                     1.000000
z115z104z2                    1.000000
z115z103z2                    1.000000
z231z104z2                    1.000000
z231z40z1                     1.000000
z45z222z2                     1.000000
z45z40z3                      1.000000
z151z227z1                    1.000000
z151z227z3                    1.000000
z46z104z2                     1.000000
z216z94z2                     1.000000
z216z110z3                    1.000000
z109z194z3                    1.000000
z109z110z1                    1.000000
z206z84z1                     1.000000
z206z93z3                     1.000000
z233z11z3                     1.000000
z233z194z3                    1.000000
z233z173z3                    1.000000
z196z173z3                    1.000000
All other variables in the range 1-7187 are 0.
